Normalized Data/p03_29_normalized_splitx10_0.vrp
NAME:p03_29_NORMALIZED_splitx10_
BEST_KNOWN: 0
COMMENT: 0
DIMENSION: 416
CAPACITY: 1000
EDGE_WEIGHT_FORMAT: FUNCTION
EDGE_WEIGHT_TYPE: EXACT_2D
NODE_COORD_SECTION
1 0.00000 0.00000
2 -12 -39
3 -12 -39
4 -12 -39
5 -19 21
6 -19 21
7 -19 21
8 -19 21
9 -19 21
10 48 -18
11 48 -18
12 -21 29
13 -21 34
14 -21 34
15 13 2
16 13 2
17 13 2
18 1 -50
19 1 -50
20 1 -50
21 1 -50
22 1 -50
23 1 -50
24 25 -14
25 25 -14
26 19 -1
27 19 -1
28 19 -1
29 19 -1
30 19 -1
31 10 -15
32 10 -15
33 10 -15
34 10 -15
35 10 -15
36 44 -17
37 44 -17
38 44 -17
39 44 -17
40 -25 -47
41 -25 -47
42 -25 -47
43 25 43
44 25 43
45 25 43
46 25 43
47 25 43
48 25 43
49 17 30
50 17 30
51 17 30
52 17 30
53 -22 48
54 -22 48
55 -36 -1
56 -36 -1
57 -36 -1
58 -36 -1
59 45 44
60 45 44
61 45 44
62 45 44
63 45 44
64 19 5
65 19 5
66 19 5
67 19 5
68 19 5
69 19 5
70 19 5
71 -35 49
72 -35 49
73 -35 49
74 28 -7
75 28 -7
76 28 -7
77 28 -7
78 -21 48
79 -21 48
80 -21 48
81 -21 48
82 2 -48
83 2 -48
84 2 -48
85 2 -48
86 2 -48
87 2 -48
88 38 39
89 38 39
90 38 39
91 38 39
92 38 39
93 15 45
94 15 45
95 15 45
96 15 45
97 15 45
98 43 50
99 43 50
100 43 50
101 43 50
102 43 50
103 -34 -49
104 -34 -49
105 -22 24
106 -22 24
107 -14 16
108 -37 -27
109 -37 -27
110 -37 -27
111 -37 -27
112 -37 -27
113 -37 -27
114 5 34
115 5 34
116 5 34
117 5 34
118 48 47
119 48 47
120 48 47
121 48 47
122 48 47
123 48 47
124 42 3
125 42 3
126 42 3
127 42 3
128 18 2
129 18 2
130 18 2
131 47 -1
132 47 -1
133 47 -1
134 47 -1
135 47 -1
136 1 -4
137 1 -4
138 1 -4
139 1 -4
140 31 -49
141 31 -49
142 31 -49
143 31 -49
144 31 -49
145 -3 28
146 -3 28
147 -3 28
148 -3 28
149 -25 34
150 -25 34
151 -25 34
152 -25 34
153 -25 34
154 -36 39
155 -36 39
156 -36 39
157 -36 39
158 36 4
159 36 4
160 36 4
161 36 4
162 -49 8
163 -49 8
164 -49 8
165 -49 8
166 -49 8
167 -49 8
168 24 -30
169 24 -30
170 24 -30
171 -17 -9
172 -17 -9
173 -17 -9
174 -17 -9
175 -17 -9
176 -28 45
177 -28 45
178 -28 45
179 13 18
180 13 18
181 13 18
182 -18 5
183 -18 5
184 15 4
185 15 4
186 41 -33
187 41 -33
188 41 -33
189 41 -33
190 41 -33
191 41 -33
192 -37 39
193 -37 39
194 -37 39
195 -37 39
196 -37 39
197 -37 39
198 -37 39
199 18 -49
200 18 -49
201 18 -49
202 18 -49
203 -30 11
204 -30 11
205 -30 11
206 23 -24
207 23 -24
208 23 -24
209 23 -24
210 23 -24
211 -6 9
212 -6 9
213 -6 9
214 -6 9
215 -6 9
216 -6 9
217 -47 2
218 -47 2
219 -47 2
220 0 -10
221 0 -10
222 0 -10
223 30 1
224 30 1
225 30 1
226 30 1
227 35 25
228 35 25
229 35 25
230 35 25
231 35 25
232 49 29
233 49 29
234 49 29
235 49 29
236 49 29
237 -44 36
238 -44 36
239 -44 36
240 -46 -2
241 -46 -2
242 -46 -2
243 -46 -2
244 -46 -2
245 -40 35
246 -40 35
247 -40 35
248 -40 35
249 -35 4
250 -35 4
251 -35 4
252 -35 4
253 -16 14
254 -16 14
255 -16 14
256 -16 14
257 -16 14
258 -16 14
259 34 42
260 34 42
261 34 42
262 34 42
263 34 42
264 34 42
265 -40 -12
266 -40 -12
267 -3 33
268 -3 33
269 -3 33
270 -3 33
271 -3 33
272 35 1
273 35 1
274 35 1
275 35 1
276 35 1
277 -33 -24
278 -33 -24
279 -33 -24
280 -33 -24
281 0 -37
282 0 -37
283 0 -37
284 -11 -25
285 -11 -25
286 -11 -25
287 -2 34
288 -2 34
289 -2 34
290 -2 34
291 -2 34
292 -40 30
293 -40 30
294 -40 30
295 20 -18
296 20 -18
297 -11 -16
298 -11 -16
299 -11 -16
300 -11 -16
301 -11 -16
302 -11 -16
303 13 -19
304 13 -19
305 13 -19
306 13 -19
307 6 47
308 6 47
309 6 47
310 6 47
311 6 47
312 6 47
313 6 47
314 -37 -2
315 -37 -2
316 -37 -2
317 -37 -2
318 -37 -2
319 -37 -2
320 -26 17
321 -26 17
322 44 20
323 44 20
324 44 20
325 44 20
326 41 28
327 41 28
328 41 28
329 41 28
330 46 17
331 -25 -20
332 -25 -20
333 -25 -20
334 -25 -20
335 -25 -20
336 41 33
337 41 33
338 41 33
339 41 33
340 20 -5
341 20 -5
342 20 -5
343 20 -5
344 20 -5
345 20 -5
346 50 16
347 50 16
348 50 16
349 50 16
350 2 31
351 2 31
352 2 31
353 -32 -37
354 -32 -37
355 -32 -37
356 -32 -37
357 26 47
358 26 47
359 13 -10
360 13 -10
361 13 -10
362 13 -10
363 13 -10
364 -22 38
365 -22 38
366 -32 22
367 -32 22
368 -32 22
369 -32 22
370 -32 22
371 -27 -10
372 -27 -10
373 -27 -10
374 -27 -10
375 0 -25
376 0 -25
377 0 -25
378 0 -25
379 0 -25
380 0 -25
381 -7 28
382 -7 28
383 -7 28
384 -7 28
385 49 23
386 49 23
387 49 23
388 49 23
389 49 23
390 33 32
391 33 32
392 33 32
393 33 32
394 33 32
395 33 32
396 39 -37
397 39 -37
398 39 -37
399 39 -37
400 39 -37
401 39 -37
402 -41 16
403 -41 16
404 -41 16
405 -41 16
406 -41 16
407 12 -25
408 12 -25
409 12 -25
410 12 -25
411 12 -25
412 47 25
413 47 25
414 47 25
415 47 25
416 47 25
DEMAND_SECTION
1 0
2 200
3 50
4 10
5 200
6 100
7 10
8 10
9 10
10 200
11 50
12 200
13 100
14 50
15 200
16 200
17 50
18 100
19 50
20 10
21 10
22 10
23 10
24 100
25 50
26 200
27 100
28 50
29 10
30 10
31 200
32 200
33 50
34 10
35 10
36 200
37 200
38 50
39 10
40 200
41 200
42 100
43 200
44 50
45 10
46 10
47 10
48 10
49 200
50 100
51 10
52 10
53 200
54 50
55 100
56 50
57 10
58 10
59 200
60 100
61 10
62 10
63 10
64 200
65 200
66 50
67 10
68 10
69 10
70 10
71 200
72 100
73 50
74 100
75 10
76 10
77 10
78 200
79 200
80 10
81 10
82 200
83 100
84 10
85 10
86 10
87 10
88 200
89 200
90 10
91 10
92 10
93 100
94 50
95 10
96 10
97 10
98 200
99 10
100 10
101 10
102 10
103 200
104 10
105 200
106 10
107 200
108 200
109 50
110 10
111 10
112 10
113 10
114 100
115 50
116 10
117 10
118 100
119 50
120 10
121 10
122 10
123 10
124 200
125 50
126 10
127 10
128 200
129 50
130 10
131 200
132 10
133 10
134 10
135 10
136 200
137 200
138 50
139 10
140 100
141 50
142 10
143 10
144 10
145 200
146 200
147 10
148 10
149 200
150 100
151 50
152 10
153 10
154 200
155 200
156 10
157 10
158 200
159 50
160 10
161 10
162 200
163 200
164 50
165 10
166 10
167 10
168 200
169 200
170 10
171 200
172 200
173 10
174 10
175 10
176 100
177 10
178 10
179 200
180 200
181 100
182 200
183 10
184 200
185 200
186 200
187 200
188 50
189 10
190 10
191 10
192 200
193 200
194 50
195 10
196 10
197 10
198 10
199 200
200 100
201 50
202 10
203 200
204 200
205 50
206 200
207 100
208 50
209 10
210 10
211 200
212 50
213 10
214 10
215 10
216 10
217 200
218 100
219 50
220 200
221 200
222 10
223 200
224 200
225 50
226 10
227 200
228 10
229 10
230 10
231 10
232 200
233 50
234 10
235 10
236 10
237 200
238 50
239 10
240 200
241 200
242 50
243 10
244 10
245 200
246 100
247 10
248 10
249 200
250 50
251 10
252 10
253 200
254 100
255 50
256 10
257 10
258 10
259 200
260 200
261 10
262 10
263 10
264 10
265 100
266 50
267 200
268 100
269 50
270 10
271 10
272 200
273 50
274 10
275 10
276 10
277 200
278 100
279 50
280 10
281 200
282 10
283 10
284 200
285 200
286 100
287 200
288 200
289 10
290 10
291 10
292 200
293 200
294 50
295 200
296 200
297 200
298 100
299 10
300 10
301 10
302 10
303 200
304 50
305 10
306 10
307 200
308 200
309 50
310 10
311 10
312 10
313 10
314 200
315 50
316 10
317 10
318 10
319 10
320 200
321 100
322 200
323 100
324 10
325 10
326 200
327 10
328 10
329 10
330 200
331 200
332 200
333 50
334 10
335 10
336 200
337 200
338 10
339 10
340 200
341 200
342 10
343 10
344 10
345 10
346 100
347 10
348 10
349 10
350 200
351 10
352 10
353 200
354 10
355 10
356 10
357 100
358 50
359 100
360 50
361 10
362 10
363 10
364 200
365 200
366 100
367 50
368 10
369 10
370 10
371 200
372 50
373 10
374 10
375 200
376 200
377 50
378 10
379 10
380 10
381 200
382 100
383 50
384 10
385 200
386 100
387 50
388 10
389 10
390 200
391 50
392 10
393 10
394 10
395 10
396 200
397 200
398 10
399 10
400 10
401 10
402 200
403 200
404 10
405 10
406 10
407 100
408 10
409 10
410 10
411 10
412 200
413 50
414 10
415 10
416 10
DEPOT_SECTION
1
-1
EOF