Normalized Data/p03_29_normalized_splitx10_0.sol
415 -1 2 18 17 21 22 20 19 86 84 83 85 81 82 281 282 280 -3 40 39 41 103 102 355 353 352 354 -13 12 53 52 80 77 79 78 382 381 -14 183 184 27 26 25 29 28 -15 16 127 128 129 63 68 69 67 65 64 66 -30 32 34 31 302 406 408 410 407 409 375 -33 304 303 305 205 208 206 294 295 361 359 360 362 358 -37 38 35 36 10 9 134 131 133 132 130 275 274 273 -43 44 47 46 42 45 92 95 93 96 94 306 309 308 312 311 307 310 116 115 -48 88 232 235 233 234 231 411 413 412 415 414 324 323 -49 51 50 357 356 259 260 258 263 261 262 392 389 394 391 393 390 -56 55 316 314 317 313 239 240 241 242 243 265 264 173 172 174 -57 54 318 315 216 217 218 162 164 161 163 165 166 -89 87 91 90 60 62 58 59 61 120 121 117 119 118 122 98 99 100 97 101 -105 104 8 6 7 4 5 106 211 210 215 -138 137 136 135 219 220 -144 269 266 267 270 268 287 290 288 289 286 -147 145 146 351 349 350 114 113 179 178 -151 152 149 150 148 364 363 380 383 -153 196 191 197 195 192 245 247 244 246 255 257 256 -156 154 155 193 194 72 71 70 175 176 177 11 213 214 212 -157 160 158 159 126 124 123 125 272 271 223 225 -167 169 168 142 143 140 141 139 198 199 201 200 -171 170 331 330 334 299 298 301 300 297 -180 336 337 335 338 326 328 327 325 229 226 228 230 227 -182 181 203 204 202 252 253 -190 189 187 185 186 188 398 400 396 397 395 399 209 207 -221 376 378 374 377 379 283 284 285 296 -224 222 74 73 75 76 24 23 341 339 344 340 343 342 -251 250 249 248 401 405 403 404 402 320 319 -254 238 237 236 293 292 291 368 366 367 369 365 -322 321 385 384 386 388 387 345 346 347 348 329 -333 332 276 279 277 278 108 107 112 109 110 111 372 370 373 371 0 





OBJ=
3071.229
BEST_KNOWN=
0.000